COLUMNS

passenger_count
pickup_ID
dropoff_ID
request_time_sec
pickup_district
dropoff_district
LDuals
IDuals
vehicle_ID
pick_position
drop_position

REQUESTS_INFO
3      349       571       28713     127       52        171       171       126       1         2         
1      795       725       28733     290       290       149       149       163       1         2         
1      483       580       28769     189       189       146       146       164       1         2         
3      479       500       28766     52        52        163       163       183       1         2         
1      749       601       28752     290       189       139       139       190       1         3         
1      983       836       28711     291       290       211       211       199       1         3         
1      1025      791       28747     291       290       190       190       216       1         3         
3      793       1372      28748     290       129       183       183       321       1         3         
1      726       828       28764     290       291       110       110       326       1         3         
2      314       632       28712     119       189       192       192       357       1         2         
1      364       285       28754     299       299       155       155       365       1         2         
1      644       936       28747     131       291       158       158       382       1         3         
1      396       305       28748     119       299       161       161       401       1         3         
2      782       747       28756     291       290       144.5     144.5     445       1         3         
1      816       834       28767     290       290       104       104       460       1         2         
2      376       235       28754     168       87        120       120       492       1         2         
1      417       597       28758     100       131       110       110       568       1         3         
1      584       859       28752     189       290       109       109       586       1         2         
3      970       314       28751     290       119       143       143       708       1         3         
1      307       133       28748     127       9         178       178       714       1         2         
3      787       805       28764     50        291       131       131       729       1         2         
1      860       1011      28743     290       84        157       157       780       1         3         
1      643       19        28758     131       98        150       150       885       1         3         
1      500       532       28748     52        199       142       142       891       1         3         
1      349       599       28724     127       280       132       132       939       1         3         
3      285       348       28697     299       299       183       183       944       1         2         
1      371       117       28742     52        286       172       172       957       1         3         
1      1000      824       28759     291       291       129       129       988       1         3         
3      461       556       28738     189       199       184       184       1007      1         2         
3      970       314       28751     290       119       143       143       1029      1         3         
3      793       1372      28748     290       129       183       183       1068      1         2         
1      811       462       28742     290       189       144       144       1088      1         4         
1      680       842       28743     290       290       148       148       1106      1         2         
3      312       462       28733     87        189       170       170       1130      1         2         
1      257       604       28760     87        189       181       181       1133      1         2         
1      816       10        28756     290       98        115       115       1136      1         3         
1      348       373       28697     299       119       215       215       1191      1         2         
1      1128      915       28745     291       291       150       150       1197      1         2         
3      434       670       28713     52        280       198       198       1224      1         2         
1      929       1218      28769     290       84        132       132       1226      1         2         
1      1129      115       28749     291       9         127       127       1379      1         4         
1      549       719       28757     52        189       144       144       1387      1         3         
4      1026      916       28754     291       291       183       183       1415      1         2         
1      574       508       28760     189       199       127       127       1725      1         2         
2      1187      651       28750     291       189       122       122       1751      1         2         
1      1128      833       28760     291       50        135       135       1757      1         2         
1      483       443       28759     189       168       156       156       1778      1         2         
1      397       651       28765     168       189       146       146       1802      1         3         
1      483       722       28748     189       290       167       167       1820      1         3         
3      772       63        28713     290       98        178       178       1889      1         2         
2      502       718       28689     52        189       218       218       1895      1         2         
2      193       98        28671     266       98        252       252       1932      1         2         
3      458       524       28745     52        52        159       159       1948      1         2         
3      644       616       28726     131       131       185       185       1974      1         2         
1      510       529       28770     199       189       0         0         0         0         0         
1      745       557       28770     290       189       0         0         0         0         0         
1      475       525       28770     52        52        0         0         0         0         0         
1      463       409       28770     168       52        0         0         0         0         0         
1      621       672       28771     280       189       0         0         0         0         0         
3      1131      646       28771     291       280       0         0         0         0         0         
3      1131      646       28771     291       280       0         0         0         0         0         
1      487       527       28771     199       52        0         0         0         0         0         
2      213       581       28771     266       189       0         0         0         0         0         
3      173       499       28772     286       52        0         0         0         0         0         
2      173       499       28772     286       52        0         0         0         0         0         
1      48        337       28772     98        277       0         0         0         0         0         
1      579       673       28772     189       189       0         0         0         0         0         
1      189       309       28772     286       127       0         0         0         0         0         
1      388       671       28772     299       280       0         0         0         0         0         
1      791       134       28772     290       9         0         0         0         0         0         
1      864       862       28772     290       290       0         0         0         0         0         
1      816       627       28772     290       189       0         0         0         0         0         
3      723       1032      28773     290       84        0         0         0         0         0         
2      723       1032      28773     290       84        0         0         0         0         0         
2      991       662       28773     290       131       0         0         0         0         0         
1      772       1011      28773     290       84        0         0         0         0         0         
2      972       581       28773     290       189       0         0         0         0         0         
2      662       859       28774     131       290       0         0         0         0         0         
1      232       721       28774     266       290       0         0         0         0         0         
1      579       1033      28774     189       84        0         0         0         0         0         
1      930       1101      28774     999       84        0         0         0         0         0         
3      276       399       28774     87        168       0         0         0         0         0         
2      530       946       28774     189       290       0         0         0         0         0         
3      1045      962       28775     291       291       0         0         0         0         0         
3      1045      962       28775     291       291       0         0         0         0         0         
1      118       416       28775     286       100       0         0         0         0         0         
1      739       416       28775     189       100       0         0         0         0         0         
1      893       893       28775     291       291       0         0         0         0         0         
1      310       499       28775     127       52        0         0         0         0         0         
1      633       718       28776     189       189       0         0         0         0         0         
1      1053      621       28776     84        280       0         0         0         0         0         
1      416       780       28776     100       291       0         0         0         0         0         
1      603       676       28776     189       189       0         0         0         0         0         
1      218       350       28776     87        127       0         0         0         0         0         
1      1434      695       28776     129       189       0         0         0         0         0         
1      396       466       28776     119       199       0         0         0         0         0         
3      668       507       28776     280       189       0         0         0         0         0         
2      668       507       28776     280       189       0         0         0         0         0         
1      608       747       28777     189       290       0         0         0         0         0         
1      373       358       28777     119       168       0         0         0         0         0         
1      195       275       28777     207       87        0         0         0         0         0         
1      285       604       28777     299       189       0         0         0         0         0         
1      600       665       28778     280       131       0         0         0         0         0         
1      436       1225      28778     100       192       0         0         0         0         0         
1      980       1086      28778     291       291       0         0         0         0         0         
1      212       119       28778     266       286       0         0         0         0         0         
2      133       720       28778     9         290       0         0         0         0         0         
1      663       694       28778     131       189       0         0         0         0         0         
1      744       747       28778     290       290       0         0         0         0         0         
2      713       599       28779     131       280       0         0         0         0         0         
1      532       692       28779     199       280       0         0         0         0         0         
4      718       627       28779     189       189       0         0         0         0         0         
1      325       627       28779     299       189       0         0         0         0         0         
1      924       1377      28780     290       129       0         0         0         0         0         
1      48        570       28780     98        52        0         0         0         0         0         
3      328       534       28780     299       199       0         0         0         0         0         
1      549       717       28780     52        189       0         0         0         0         0         
1      621       697       28780     280       189       0         0         0         0         0         
1      547       549       28780     52        52        0         0         0         0         0         
1      308       232       28780     127       266       0         0         0         0         0         
1      694       557       28780     189       189       0         0         0         0         0         
1      760       871       28781     291       291       0         0         0         0         0         
1      791       557       28781     290       189       0         0         0         0         0         
3      489       651       28782     199       189       0         0         0         0         0         
2      679       738       28782     290       189       0         0         0         0         0         
1      609       646       28782     189       280       0         0         0         0         0         
3      1446      850       28782     129       291       0         0         0         0         0         
3      1026      1065      28782     291       291       0         0         0         0         0         
3      1026      1065      28782     291       291       0         0         0         0         0         
3      489       651       28782     199       189       0         0         0         0         0         
1      462       556       28783     189       199       0         0         0         0         0         
1      1022      968       28783     291       290       0         0         0         0         0         
1      599       415       28783     280       100       0         0         0         0         0         
1      189       116       28783     286       9         0         0         0         0         0         
1      722       416       28783     290       100       0         0         0         0         0         
2      646       556       28784     280       199       0         0         0         0         0         
3      646       556       28784     280       199       0         0         0         0         0         
1      148       356       28784     178       119       0         0         0         0         0         
1      143       374       28784     54        119       0         0         0         0         0         
1      618       739       28785     131       189       0         0         0         0         0         
1      460       499       28785     189       52        0         0         0         0         0         
3      138       1174      28785     57        129       0         0         0         0         0         
1      417       791       28785     100       290       0         0         0         0         0         
1      1142      1055      28785     84        84        0         0         0         0         0         
1      747       599       28785     290       280       0         0         0         0         0         
1      621       603       28785     280       189       0         0         0         0         0         
1      824       772       28786     291       290       0         0         0         0         0         
1      950       430       28786     290       52        0         0         0         0         0         
3      894       960       28786     291       291       0         0         0         0         0         
1      925       946       28786     290       290       0         0         0         0         0         
1      913       1530      28786     291       296       0         0         0         0         0         
1      772       604       28786     290       189       0         0         0         0         0         
2      791       969       28786     290       290       0         0         0         0         0         
3      758       548       28787     131       52        0         0         0         0         0         
1      860       894       28787     290       291       0         0         0         0         0         
3      758       548       28787     131       52        0         0         0         0         0         
1      758       578       28787     131       189       0         0         0         0         0         
1      783       744       28788     50        290       0         0         0         0         0         
1      464       655       28789     168       189       0         0         0         0         0         
1      1321      1109      28789     129       291       0         0         0         0         0         
2      973       184       28789     84        87        0         0         0         0         0         
3      743       652       28789     290       189       0         0         0         0         0         
2      743       652       28789     290       189       0         0         0         0         0         
1      1058      1055      28790     84        84        0         0         0         0         0         
1      835       378       28790     290       168       0         0         0         0         0         
3      992       670       28790     290       280       0         0         0         0         0         
1      551       673       28791     189       189       0         0         0         0         0         
3      793       652       28791     290       189       0         0         0         0         0         
3      793       652       28791     290       189       0         0         0         0         0         
1      608       863       28791     189       290       0         0         0         0         0         
1      778       275       28791     131       87        0         0         0         0         0         
1      922       558       28791     50        189       0         0         0         0         0         
1      524       308       28791     52        127       0         0         0         0         0         
1      1153      1188      28792     50        192       0         0         0         0         0         
2      443       651       28792     168       189       0         0         0         0         0         
3      443       651       28792     168       189       0         0         0         0         0         
1      48        116       28792     98        9         0         0         0         0         0         
1      522       526       28792     52        52        0         0         0         0         0         
1      552       1057      28792     189       84        0         0         0         0         0         
1      1114      968       28792     50        290       0         0         0         0         0         
1      725       582       28792     290       189       0         0         0         0         0         
2      527       353       28792     52        119       0         0         0         0         0         
1      865       969       28792     290       290       0         0         0         0         0         
1      47        64        28792     98        98        0         0         0         0         0         
2      604       623       28792     189       280       0         0         0         0         0         
1      146       123       28792     178       54        0         0         0         0         0         
1      666       387       28793     131       299       0         0         0         0         0         
1      505       556       28793     52        199       0         0         0         0         0         
3      918       859       28793     50        290       0         0         0         0         0         
2      918       859       28793     50        290       0         0         0         0         0         
3      296       581       28793     277       189       0         0         0         0         0         
2      296       581       28793     277       189       0         0         0         0         0         
1      652       580       28793     189       189       0         0         0         0         0         
1      189       304       28793     286       299       0         0         0         0         0         
1      1002      1129      28794     291       291       0         0         0         0         0         
2      583       734       28794     189       131       0         0         0         0         0         
1      1149      937       28794     291       291       0         0         0         0         0         
3      836       1027      28794     290       50        0         0         0         0         0         
1      548       484       28794     52        189       0         0         0         0         0         
2      1282      1073      28794     192       50        0         0         0         0         0         
1      390       430       28795     52        52        0         0         0         0         0         
3      295       531       28795     87        189       0         0         0         0         0         
1      771       905       28795     290       290       0         0         0         0         0         
2      295       531       28795     87        189       0         0         0         0         0         
1      1025      721       28795     291       290       0         0         0         0         0         
2      438       552       28795     100       189       0         0         0         0         0         
1      510       629       28795     199       189       0         0         0         0         0         
1      434       411       28795     52        52        0         0         0         0         0         
2      948       904       28795     290       290       0         0         0         0         0         
1      782       725       28795     291       290       0         0         0         0         0         
3      189       390       28796     286       52        0         0         0         0         0         
3      189       390       28796     286       52        0         0         0         0         0         
1      252       304       28796     206       299       0         0         0         0         0         
1      959       486       28796     291       199       0         0         0         0         0         
2      991       743       28796     290       290       0         0         0         0         0         
1      499       78        28796     52        9         0         0         0         0         0         
1      43        652       28796     9         189       0         0         0         0         0         
1      372       604       28796     119       189       0         0         0         0         0         
1      436       544       28796     100       52        0         0         0         0         0         
1      792       630       28796     290       189       0         0         0         0         0         
1      189       651       28796     286       189       0         0         0         0         0         
1      781       670       28797     291       280       0         0         0         0         0         
1      739       739       28797     189       189       0         0         0         0         0         
1      527       603       28797     52        189       0         0         0         0         0         
1      618       670       28797     131       280       0         0         0         0         0         
1      749       882       28797     290       290       0         0         0         0         0         
2      760       720       28798     291       290       0         0         0         0         0         
1      600       650       28798     280       189       0         0         0         0         0         
3      745       837       28798     290       290       0         0         0         0         0         
1      745       521       28798     290       52        0         0         0         0         0         
1      78        270       28798     9         127       0         0         0         0         0         
1      134       718       28799     9         189       0         0         0         0         0         
1      905       811       28799     290       290       0         0         0         0         0         
1      864       116       28799     290       9         0         0         0         0         0         
